NAME: instance_623
TYPE: TSP
DIMENSION: 20
EDGE_WEIGHT_TYPE: EUC_2D
NODE_COORD_SECTION
0 73.30 57.62
1 75.93 71.75
2 33.86 73.44
3 0.44 35.00
4 51.51 75.72
5 51.19 77.48
6 35.49 49.54
7 9.30 61.55
8 57.57 48.90
9 20.41 59.41
10 58.63 77.88
11 96.62 87.90
12 7.27 66.49
13 67.04 32.21
14 71.29 57.67
15 48.74 41.24
16 96.57 42.82
17 69.38 52.03
18 28.99 49.55
19 26.93 62.13
EOF
